c
p cnf 32 41
18 -4 0
28 26 0
19 12 0
-15 27 0
30 -14 0
1 -29 0
-15 -10 0
12 -2 0
-18 -14 0
-32 -1 0
-15 13 0
5 -2 0
20 -12 0
16 -29 0
-32 14 0
-26 -19 0
-13 -9 0
-9 -4 0
27 -17 0
25 -30 0
1 4 0
13 4 0
-5 -9 0
-18 24 0
-17 7 0
5 3 0
-8 27 0
5 -18 0
-30 6 0
-29 -14 0
-2 -29 0
-6 9 0
26 5 0
-18 -32 0
24 -15 0
-21 -1 0
23 -24 0
-11 25 0
3 23 0
-8 -25 0
14 -22 0
